data;

param w := 28;
param n := 22;
param min_h := 28;
param max_h := 40;

set BLOCKS := 1 2 3 4 5 6 7 8 9 10 11 12 13 14 15 16 17 18 19 20 21 22 ;

param:	width	height :=
	1	4	23
	2	3	23
	3	5	13
	4	3	21
	5	4	13
	6	3	17
	7	3	16
	8	5	9
	9	3	11
	10	4	8
	11	3	10
	12	5	6
	13	3	9
	14	3	8
	15	3	7
	16	4	5
	17	3	6
	18	4	4
	19	3	5
	20	3	4
	21	4	3
	22	3	3;